experiments/lot-sizing/detailed-output/inst-9-510416220.dzn

change_cost = array2d(0..8, 0..8,
                      [0, 0, 0, 0, 0, 0, 0, 0, 0, 0, 0, 20, 38, 85, 113, 196, 198, 45,
                       0, 107, 0, 111, 178, 158, 189, 179, 90, 0, 191, 127, 0, 102, 107, 177, 176, 111,
                       0, 185, 121, 67, 0, 101, 141, 144, 79, 0, 155, 71, 72, 36, 0, 139, 95, 27,
                       0, 131, 146, 154, 112, 150, 0, 183, 107, 0, 149, 65, 44, 66, 98, 45, 0, 15,
                       0, 165, 74, 70, 113, 97, 190, 163, 0]);
due_period = array1d(1..8, [10, 7, 7, 5, 1, 7, 8, 1]);
inventory_cost = 8;
item_type = array1d(0..8, [0, 1, 2, 3, 4, 4, 5, 5, 6]);
nb_item_types = 6;
nb_of_orders = array1d(1..6, [1, 1, 1, 2, 2, 1]);
nb_orders = 8;
nb_periods = 10;
